c 209_4_checker.cnf
c
c field = 209
c formula set type = 4_checker
c
p cnf 5 18
408 
410 
412 
414 
-406 
409 
411 
413 
415 
-407 
408 
410 
412 
414 
-418 
409 
411 
413 
415 
-419 
410 
412 
414 
418 
-408 
411 
413 
415 
419 
-409 
296 
326 
356 
386 
-266 
297 
327 
357 
387 
-267 
296 
326 
356 
386 
-446 
297 
327 
357 
387 
-447 
326 
356 
386 
446 
-296 
327 
357 
387 
447 
-297 
288 
320 
352 
384 
-256 
289 
321 
353 
385 
-257 
288 
320 
352 
384 
-448 
289 
321 
353 
385 
-449 
320 
352 
384 
448 
-288 
321 
353 
385 
449 
-289 
